language ESSENCE' 1.0
$ loaded file: carseqdata/csplib-instance-11
letting numcars=200
letting numclasses=17
letting numoptions=5
letting optMax=[1, 2, 1, 2, 1]
letting windowSize=[2, 3, 3, 5, 5]
letting numberPerClass=[2, 2, 4, 1, 30, 1, 1, 39, 54, 1, 2, 3, 1, 53, 1, 1, 4]
letting optionsRequired=[[1, 0, 1, 1, 0], [1, 0, 0, 0, 1], [1, 1, 0, 0, 0], [1, 1, 1, 0, 0], [0, 0, 0, 0, 1], [1, 1, 0, 1, 0], [1, 0, 1, 0, 1], [0, 0, 1, 0, 0], [0, 0, 0, 1, 0], [0, 1, 1, 0, 1], [0, 0, 1, 1, 0], [1, 0, 1, 0, 0], [1, 0, 0, 1, 1], [0, 1, 0, 0, 0], [0, 1, 1, 0, 0], [0, 1, 0, 0, 1], [1, 0, 0, 0, 0]]
